NAME : random626550
COMMENT: random generated with id 626550
TYPE : TSP
DIMENSION : 10
EDGE_WEIGHT_TYPE : EUC_2D
NODE_COORD_SECTION
1 11.450081 10.750770
2 14.640359 4.745093
3 13.311500 2.354610
4 0.231761 4.045559
5 4.230988 12.370328
6 13.874405 2.968442
7 2.790538 19.519605
8 14.843660 7.790205
9 19.788550 15.227676
10 15.093462 2.489173
EOF
